c Random generated cnf formula, satisfiable: true
p cnf 10 50
-4 -9 -5 0
5 2 -7 0
-7 3 -4 0
-8 -10 -7 0
-2 -7 -3 0
9 5 -4 0
10 -6 3 0
-10 5 -8 0
-4 -3 9 0
4 -10 8 0
9 -5 4 0
-10 5 -4 0
-4 -2 -7 0
5 -4 1 0
3 -7 -4 0
6 -1 -8 0
3 -1 5 0
6 -4 7 0
-5 2 -9 0
-8 1 6 0
-1 10 -8 0
6 2 8 0
-9 7 4 0
-3 -10 8 0
3 1 10 0
2 -1 -8 0
8 -4 7 0
10 -6 -3 0
-10 -1 9 0
-8 -2 5 0
10 2 -9 0
-10 8 -3 0
8 -3 4 0
4 2 -8 0
-8 -5 -4 0
2 -8 5 0
7 2 -9 0
10 8 7 0
7 -10 4 0
-2 6 -3 0
-10 6 -2 0
-5 -7 -3 0
5 -4 -10 0
-4 -10 -9 0
-6 -10 -2 0
-6 8 1 0
8 7 4 0
4 -10 -6 0
-8 -6 5 0
-6 -5 10 0
